50, 1057800
3360, 14621
3559, 14659
3345, 15061
3553, 14548
3527, 15050
3522, 14661
3400, 14920
3409, 14639
3390, 14453
3546, 14134
3397, 14599
3607, 14692
3490, 14958
3546, 15082
3389, 14887
3424, 14675
3608, 14382
3548, 14239
3444, 14912
3450, 14745
3536, 14866
3424, 14693
3468, 14170
3507, 14418
3365, 14640
166950, 1034483
163611, 1020485
160272, 1006419
156933, 992825
153594, 979457
150255, 966761
146916, 952875
143577, 939162
140238, 925241
136899, 911171
133560, 897296
130221, 883547
126882, 869548
123543, 856060
120204, 842313
116865, 828329
113526, 814910
110187, 801815
106848, 787777
103509, 773695
100170, 760859
96831, 746852
93492, 732970
90153, 718902
86814, 704920
